db/data/68462627815967295622128386921138330504.z3.out
unsat
-------------------
48.655286226
